27	3

10	10	7	

0	0	0	0	3	2	3	4	
2	3	5	2	2	5	7	
1	5	4	3	2	6	8	
1	5	2	2	2	6	7	
2	4	1	4	2	11	12	
4	5	5	4	2	10	11	
6	3	5	2	2	9	10	
3	2	4	4	2	10	11	
3	3	2	2	1	14	
1	3	2	4	2	13	16	
2	3	3	2	2	13	15	
1	4	1	4	1	13	
4	1	4	4	1	19	
3	2	2	2	1	18	
6	5	5	4	2	17	18	
1	1	5	4	1	20	
1	4	5	4	1	22	
1	3	2	3	1	21	
6	5	3	3	2	23	24	
1	2	4	6	1	22	
1	1	6	2	1	25	
1	3	2	1	1	25	
3	1	0	4	1	25	
5	2	2	1	2	25	26	
5	0	1	3	1	27	
4	2	2	2	1	27	
0	0	0	0	0	
